c FILE /home/rafael/Documents/HappySet/MIHS/inputs/happygen/output/graph_d_regular_k4_p0.3_v100_20241127_084030.txt
c SOURCE This is a d-regular graph formed for the happy graph colouring problem.
c DESCRIPTION It was generated using the problem generator of Rhyd Lewis
c
c GRAPH STATS
c Seed                             = -203598017
c Number of Nodes                  = 100
c Number of colours k              = 4
c Number of pre-assignments        = 30
c Degree of all vertices           = 6
c Density                          = 0.0606061
c 
c The degrees of nodes 1 to 100, respectively, are as follows 
c [6, 6, 6, 6, 6, 6, 6, 6, 6, 6, 6, 6, 6, 6, 6, 6, 6, 6, 6, 6, 6, 6, 6, 6, 6, 6, 
c  6, 6, 6, 6, 6, 6, 6, 6, 6, 6, 6, 6, 6, 6, 6, 6, 6, 6, 6, 6, 6, 6, 6, 6, 6, 
c  6, 6, 6, 6, 6, 6, 6, 6, 6, 6, 6, 6, 6, 6, 6, 6, 6, 6, 6, 6, 6, 6, 6, 6, 6, 
c  6, 6, 6, 6, 6, 6, 6, 6, 6, 6, 6, 6, 6, 6, 6, 6, 6, 6, 6, 6, 6, 6, 6, 6] 
c  
p edge 100 300 4
e 1 2
e 1 3
e 1 16
e 1 25
e 1 57
e 1 67
e 2 15
e 2 22
e 2 39
e 2 91
e 2 95
e 3 5
e 3 60
e 3 90
e 3 92
e 3 95
e 4 18
e 4 29
e 4 37
e 4 49
e 4 71
e 4 82
e 5 7
e 5 20
e 5 22
e 5 25
e 5 61
e 6 36
e 6 55
e 6 64
e 6 89
e 6 94
e 6 98
e 7 8
e 7 34
e 7 53
e 7 60
e 7 68
e 8 32
e 8 35
e 8 48
e 8 53
e 8 59
e 9 40
e 9 42
e 9 44
e 9 47
e 9 48
e 9 73
e 10 17
e 10 23
e 10 32
e 10 42
e 10 45
e 10 88
e 11 27
e 11 47
e 11 58
e 11 61
e 11 67
e 11 94
e 12 29
e 12 35
e 12 57
e 12 71
e 12 76
e 12 81
e 13 18
e 13 31
e 13 33
e 13 35
e 13 40
e 13 99
e 14 32
e 14 49
e 14 65
e 14 74
e 14 87
e 14 89
e 15 42
e 15 46
e 15 63
e 15 70
e 15 83
e 16 17
e 16 84
e 16 92
e 16 95
e 16 97
e 17 36
e 17 45
e 17 71
e 17 94
e 18 31
e 18 45
e 18 60
e 18 89
e 19 25
e 19 27
e 19 50
e 19 55
e 19 59
e 19 72
e 20 33
e 20 43
e 20 65
e 20 74
e 20 82
e 21 34
e 21 44
e 21 54
e 21 64
e 21 71
e 21 87
e 22 35
e 22 64
e 22 94
e 22 97
e 23 34
e 23 49
e 23 50
e 23 82
e 23 91
e 24 51
e 24 60
e 24 65
e 24 76
e 24 83
e 24 91
e 25 71
e 25 84
e 25 99
e 26 27
e 26 63
e 26 68
e 26 70
e 26 81
e 26 82
e 27 93
e 27 97
e 27 98
e 28 30
e 28 36
e 28 48
e 28 51
e 28 59
e 28 93
e 29 48
e 29 63
e 29 72
e 29 80
e 30 43
e 30 58
e 30 77
e 30 88
e 30 93
e 31 43
e 31 46
e 31 56
e 31 96
e 32 47
e 32 94
e 32 97
e 33 41
e 33 43
e 33 51
e 33 69
e 34 54
e 34 77
e 34 78
e 35 41
e 35 43
e 36 54
e 36 68
e 36 92
e 37 58
e 37 59
e 37 69
e 37 75
e 37 86
e 38 40
e 38 43
e 38 56
e 38 65
e 38 66
e 38 80
e 39 46
e 39 53
e 39 58
e 39 80
e 39 88
e 40 76
e 40 80
e 40 91
e 41 75
e 41 81
e 41 90
e 41 93
e 42 49
e 42 52
e 42 58
e 44 46
e 44 57
e 44 66
e 44 77
e 45 50
e 45 61
e 45 63
e 46 62
e 46 64
e 47 49
e 47 79
e 47 86
e 48 62
e 48 73
e 49 83
e 50 56
e 50 70
e 50 83
e 51 60
e 51 75
e 51 80
e 52 57
e 52 73
e 52 74
e 52 88
e 52 100
e 53 59
e 53 75
e 53 95
e 54 74
e 54 95
e 54 99
e 55 56
e 55 73
e 55 89
e 55 100
e 56 66
e 56 94
e 57 62
e 57 78
e 58 72
e 59 89
e 60 98
e 61 62
e 61 92
e 61 96
e 62 78
e 62 93
e 63 67
e 63 85
e 64 73
e 64 90
e 65 76
e 65 81
e 66 73
e 66 79
e 66 80
e 67 78
e 67 83
e 67 100
e 68 83
e 68 85
e 68 87
e 69 78
e 69 85
e 69 91
e 69 96
e 70 87
e 70 89
e 70 97
e 71 96
e 72 79
e 72 84
e 72 98
e 74 82
e 74 98
e 75 77
e 75 93
e 76 77
e 76 90
e 77 86
e 78 86
e 79 81
e 79 87
e 79 97
e 81 84
e 82 88
e 84 90
e 84 91
e 85 88
e 85 92
e 85 96
e 86 90
e 86 100
e 87 99
e 92 99
e 95 100
e 96 99
e 98 100
n 4 1
n 7 1
n 8 1
n 11 2
n 12 1
n 15 4
n 19 2
n 20 1
n 22 3
n 23 1
n 29 1
n 30 2
n 36 1
n 39 4
n 40 2
n 41 3
n 42 4
n 45 1
n 46 4
n 62 4
n 65 1
n 68 1
n 73 3
n 77 2
n 82 1
n 84 3
n 86 2
n 89 3
n 96 4
n 99 4
